
List of user-set options:

                                    Name   Value                used
                           linear_solver = mumps                 yes
                  ma57_automatic_scaling = yes                    no
                             mu_strategy = adaptive              yes
                      nlp_scaling_method = none                  yes
                             output_file = Gain_WalkingIPOPTinfo.txt  yes
                      print_user_options = yes                   yes
                                     tol = 0.001                 yes
This is Ipopt version 3.11.0, running with linear solver mumps.

Number of nonzeros in equality constraint Jacobian...:  1853381
Number of nonzeros in inequality constraint Jacobian.:    43774
Number of nonzeros in Lagrangian Hessian.............:   464466


Number of Iterations....: 0

Number of objective function evaluations             = 0
Number of objective gradient evaluations             = 0
Number of equality constraint evaluations            = 0
Number of inequality constraint evaluations          = 1
Number of equality constraint Jacobian evaluations   = 0
Number of inequality constraint Jacobian evaluations = 0
Number of Lagrangian Hessian evaluations             = 0
Total CPU secs in IPOPT (w/o function evaluations)   =      1.174
Total CPU secs in NLP function evaluations           =      0.065

EXIT: Invalid number in NLP function or derivative detected.
